M = 10;
N = 15;
E = 182;
l = [180, 190, 210, 200, 195, 180, 210, 200, 195, 210];
p = [4, 12, 3, 15, 13, 20, 21, 4, 25, 21, 7, 3, 9];
from = [14, 14, 14, 14, 14, 14, 14, 14, 14, 14, 14, 14, 14, 1, 1, 1, 1, 1, 1, 1, 1, 1, 1, 1, 1, 1, 2, 2, 2, 2, 2, 2, 2, 2, 2, 2, 2, 2, 2, 3, 3, 3, 3, 3, 3, 3, 3, 3, 3, 3, 3, 3, 4, 4, 4, 4, 4, 4, 4, 4, 4, 4, 4, 4, 4, 5, 5, 5, 5, 5, 5, 5, 5, 5, 5, 5, 5, 5, 6, 6, 6, 6, 6, 6, 6, 6, 6, 6, 6, 6, 6, 7, 7, 7, 7, 7, 7, 7, 7, 7, 7, 7, 7, 7, 8, 8, 8, 8, 8, 8, 8, 8, 8, 8, 8, 8, 8, 9, 9, 9, 9, 9, 9, 9, 9, 9, 9, 9, 9, 9, 10, 10, 10, 10, 10, 10, 10, 10, 10, 10, 10, 10, 10, 11, 11, 11, 11, 11, 11, 11, 11, 11, 11, 11, 11, 11, 12, 12, 12, 12, 12, 12, 12, 12, 12, 12, 12, 12, 12, 13, 13, 13, 13, 13, 13, 13, 13, 13, 13, 13, 13, 13];
to = [1, 2, 3, 4, 5, 6, 7, 8, 9, 10, 11, 12, 13, 2, 3, 4, 5, 6, 7, 8, 9, 10, 11, 12, 13, 15, 1, 3, 4, 5, 6, 7, 8, 9, 10, 11, 12, 13, 15, 1, 2, 4, 5, 6, 7, 8, 9, 10, 11, 12, 13, 15, 1, 2, 3, 5, 6, 7, 8, 9, 10, 11, 12, 13, 15, 1, 2, 3, 4, 6, 7, 8, 9, 10, 11, 12, 13, 15, 1, 2, 3, 4, 5, 7, 8, 9, 10, 11, 12, 13, 15, 1, 2, 3, 4, 5, 6, 8, 9, 10, 11, 12, 13, 15, 1, 2, 3, 4, 5, 6, 7, 9, 10, 11, 12, 13, 15, 1, 2, 3, 4, 5, 6, 7, 8, 10, 11, 12, 13, 15, 1, 2, 3, 4, 5, 6, 7, 8, 9, 11, 12, 13, 15, 1, 2, 3, 4, 5, 6, 7, 8, 9, 10, 12, 13, 15, 1, 2, 3, 4, 5, 6, 7, 8, 9, 10, 11, 13, 15, 1, 2, 3, 4, 5, 6, 7, 8, 9, 10, 11, 12, 15];
w = [54, 15, 28, 112, 108, 45, 107, 240, 78, 24, 83, 23, 191, 49, 80, 59, 112, 79, 112, 187, 28, 47, 36, 69, 138, 54, 49, 43, 107, 93, 30, 92, 236, 74, 9, 79, 38, 187, 15, 80, 43, 132, 136, 73, 135, 261, 104, 52, 109, 11, 212, 28, 69, 107, 138, 171, 137, 171, 129, 87, 105, 33, 127, 80, 112, 112, 93, 136, 171, 79, 13, 186, 84, 84, 148, 131, 149, 108, 79, 30, 73, 137, 79, 66, 265, 103, 32, 108, 68, 216, 45, 112, 92, 135, 171, 13, 66, 199, 84, 83, 148, 130, 150, 107, 187, 211, 168, 129, 186, 241, 199, 162, 220, 158, 179, 49, 196, 28, 74, 104, 87, 84, 103, 84, 162, 71, 64, 93, 113, 78, 47, 9, 52, 105, 84, 32, 83, 233, 71, 76, 47, 184, 24, 36, 79, 109, 33, 148, 108, 148, 158, 64, 76, 98, 109, 83, 69, 38, 11, 121, 131, 68, 130, 250, 93, 47, 98, 201, 23, 138, 162, 119, 80, 149, 192, 150, 49, 113, 171, 109, 130, 147];
